unsat
(:binary-propagations  7
 :conflicts            1
 :final-checks         1
 :max-generation       1
 :max-memory           22.82
 :memory               20.81
 :mk-bool-var          129
 :mk-clause            45
 :mk-clause-binary     255
 :num-allocs           3502127
 :num-checks           1
 :propagations         7
 :quant-instantiations 42
 :restarts             1
 :rlimit-count         31076
 :time                 0.01)
